\ LP format - for model browsing. Use MPS format to capture full model detail.
Minimize
  q_1 + theta_2
Subject To
 R0: 10 q_1 + theta_2 >= 100
 R1: 10 q_1 + theta_2 >= 100
 R2: 4 q_1 + theta_2 >= 52
 R3: 10 q_1 + theta_2 >= 100
 R4: 4 q_1 + theta_2 >= 52
 R5: q_1 + theta_2 >= 16
Bounds
End
